
******************************************************************************
This program contains Ipopt, a library for large-scale nonlinear optimization.
 Ipopt is released as open source code under the Eclipse Public License (EPL).
         For more information visit http://projects.coin-or.org/Ipopt

This version of Ipopt was compiled from source code available at
    https://github.com/IDAES/Ipopt as part of the Institute for the Design of
    Advanced Energy Systems Process Systems Engineering Framework (IDAES PSE
    Framework) Copyright (c) 2018-2019. See https://github.com/IDAES/idaes-pse.

This version of Ipopt was compiled using HSL, a collection of Fortran codes
    for large-scale scientific computation.  All technical papers, sales and
    publicity material resulting from use of the HSL codes within IPOPT must
    contain the following acknowledgement:
        HSL, a collection of Fortran codes for large-scale scientific
        computation. See http://www.hsl.rl.ac.uk.
******************************************************************************

This is Ipopt version 3.13.2, running with linear solver ma27.

Number of nonzeros in equality constraint Jacobian...:      958
Number of nonzeros in inequality constraint Jacobian.:        0
Number of nonzeros in Lagrangian Hessian.............:      832

Total number of variables............................:      416
                     variables with only lower bounds:      128
                variables with lower and upper bounds:      224
                     variables with only upper bounds:        0
Total number of equality constraints.................:      415
Total number of inequality constraints...............:        0
        inequality constraints with only lower bounds:        0
   inequality constraints with lower and upper bounds:        0
        inequality constraints with only upper bounds:        0

iter    objective    inf_pr   inf_du lg(mu)  ||d||  lg(rg) alpha_du alpha_pr  ls
   0  0.0000000e+00 5.39e-01 3.33e-16  -1.0 0.00e+00    -  0.00e+00 0.00e+00   0
   1  5.4210918e-01 4.43e+00 1.25e+05  -1.0 1.20e+05    -  4.37e-01 4.69e-01h  1
   2  8.7360894e-01 3.12e+00 9.55e+04  -1.0 5.16e+04    -  8.75e-01 2.32e-01h  1
   3  8.9817764e-01 3.05e+00 9.34e+04  -1.0 1.07e+05    -  8.84e-01 2.09e-02h  1
   4  3.7647968e+00 3.98e-01 7.24e+04  -1.0 1.16e+05    -  3.91e-01 8.02e-01h  1
   5  3.8292033e+00 3.83e-01 6.98e+04  -1.0 4.14e+04    -  2.57e-02 3.59e-02h  1
   6  6.5487718e+00 1.27e-01 8.45e+02  -1.0 5.69e+04    -  8.04e-03 9.90e-01h  1
   7  6.6613134e+00 1.62e-02 1.64e+02  -1.0 2.63e+03    -  9.87e-01 9.90e-01h  1
   8  6.6847073e+00 6.50e-04 1.32e+01  -1.0 5.28e+02    -  9.90e-01 9.90e-01h  1
   9  6.7578093e+00 2.64e-05 1.18e+04  -1.0 1.63e+03    -  9.90e-01 9.90e-01h  1
iter    objective    inf_pr   inf_du lg(mu)  ||d||  lg(rg) alpha_du alpha_pr  ls
  10  6.7320526e+00 1.97e-05 2.84e+08  -2.5 2.46e+03    -  9.97e-01 2.32e-01f  3
  11  6.6570778e+00 7.81e-06 2.17e+06  -2.5 1.67e+03    -  1.00e+00 9.97e-01h  1
  12  6.6579088e+00 2.63e-08 4.83e+08  -2.5 1.95e+01    -  1.00e+00 9.97e-01h  1
In iteration 12, 32 Slacks too small, adjusting variable bounds
  13  6.6579101e+00 7.40e-11 1.71e+11  -2.5 3.12e-02    -  1.00e+00 9.97e-01h  1
  14  6.6579101e+00 6.27e-11 2.17e-03  -2.5 8.83e-05    -  1.00e+00 1.00e+00h  1
  15  6.6550707e+00 3.08e-11 6.20e+08  -9.0 6.36e+01    -  1.00e+00 9.96e-01F  1
  16  6.6550707e+00 3.02e-11 8.75e-08  -9.0 2.98e-05    -  1.00e+00 1.00e+00h  1

Number of Iterations....: 16

                                   (scaled)                 (unscaled)
Objective...............:   6.6550707024714209e+00    6.6550707024714209e+00
Dual infeasibility......:   8.7471562437713146e-08    8.7471562437713146e-08
Constraint violation....:   3.0156321884078352e-11    3.0156321884078352e-11
Complementarity.........:   9.0910370415419237e-10    9.0910370415419237e-10
Overall NLP error.......:   2.4548411250191787e-09    8.7471562437713146e-08


Number of objective function evaluations             = 22
Number of objective gradient evaluations             = 17
Number of equality constraint evaluations            = 22
Number of inequality constraint evaluations          = 0
Number of equality constraint Jacobian evaluations   = 17
Number of inequality constraint Jacobian evaluations = 0
Number of Lagrangian Hessian evaluations             = 16
Total CPU secs in IPOPT (w/o function evaluations)   =      0.038
Total CPU secs in NLP function evaluations           =      0.385

EXIT: Optimal Solution Found.
